3 
4  57 
5  11 26 45 
6  00 24 39 54 
7  09 24 39 54 
8  09 24 39 54 
9  09 24 39 54 
10  09 24 39 54 
11  09 24 39 54 
12  09 24 39 54 
13  09 24 39 54 
14  09 24 39 54 
15  09 24 39 54 
16  09 24 39 54 
17  09 24 39 54 
18  09 24 40 55 
19  09 24 39 54 
20  09 24 39 54 
21  09 24 39 54 
22  09 24 39 57 
23  12 30 
0 
